(set-option :produce-models true)
(set-logic QF_UF)
(declare-fun p14() Bool)
(declare-fun p13() Bool)
(declare-fun p1() Bool)
(declare-fun p2() Bool)
(declare-fun p4() Bool)
(declare-fun p8() Bool)
(declare-fun p11() Bool)
(declare-fun p5() Bool)
(declare-fun p10() Bool)
(declare-fun p6() Bool)
(declare-fun p3() Bool)
(declare-fun p9() Bool)
(declare-fun p0() Bool)
(declare-fun p7() Bool)
(declare-fun p12() Bool)
(assert
(and (or p14 p13 (not p13)) (or p1 (not p2) p4) (or (not p2) (not p8) (not p11)) (or p5 (not p10) (not p4)) (or (not p6) p3 (not p3)) (or (not p1) p9 (not p14)) (or (not p3) p14 p1) (or (not p0) (not p2) p7) (or p10 p14 (not p3)) (or p11 (not p9) (not p13)) (or (not p4) (not p5) (not p14)) (or (not p3) p9 p2) (or p3 (not p8) p8) (or p4 p3 p9) (or p5 p9 p7) (or p5 p3 p4) (or p4 (not p14) p9) (or (not p8) (not p8) (not p8)) (or (not p0) (not p1) p3) (or (not p10) (not p8) (not p0)) (or p9 (not p3) p9) (or (not p5) (not p7) (not p5)) (or p14 (not p3) (not p2)) (or (not p12) (not p12) (not p11)) (or p1 p8 (not p3)) (or p4 (not p1) (not p6)) (or p11 p0 p10) (or (not p9) (not p7) (not p7)) (or p1 (not p4) (not p5)) (or (not p11) p10 (not p4)) (or (not p11) p1 p4) (or (not p1) (not p7) (not p7)) (or (not p1) p11 p13) (or (not p0) (not p3) (not p11)) (or (not p7) p8 (not p2)) (or p1 p12 p12) (or (not p7) (not p10) p12) (or p12 (not p1) (not p4)) (or p13 (not p0) (not p10)) (or p9 (not p12) p3) (or p9 p14 p8) (or p6 (not p10) (not p8)) (or (not p14) (not p10) (not p9)) (or p0 (not p2) p12) (or p5 p9 (not p12)) (or p3 p8 (not p14)) (or p11 (not p13) p8) (or p3 (not p9) (not p10)) (or p8 (not p11) p8) (or (not p0) p3 p8) (or (not p2) p0 (not p10)) (or p0 (not p6) (not p3)) (or (not p3) p4 p0) (or (not p0) (not p8) (not p0)) (or (not p13) p4 (not p2)) (or (not p11) p4 p11) (or p4 p10 p4) (or (not p6) p8 p6) (or p0 p7 p1) (or (not p6) p1 p1) (or (not p13) p2 p3) (or p10 (not p2) (not p6)) (or p13 (not p6) (not p4)) (or p11 (not p4) (not p9)) (or p10 p3 (not p6)) (or p2 (not p0) (not p3)) (or p2 (not p1) p6) (or p12 (not p0) (not p7)) (or (not p7) (not p0) (not p6)))
)
(check-sat)
(get-model)
